Pt Fe  O 
 1.0000000000000000
    19.6850999999999985    0.0000000000000000    0.0000000000000000
    -9.8425499999999957   17.0477966760370521    0.0000000000000000
     0.0000000000000000    0.0000000000000000   14.5922000000000001
 Pt  Fe  O  
 147  15  15
Selective dynamics
Cartesian
  2.8122133860000003  1.6236321554257689  0.0000000000000000   F   F   F
  8.4364433069999993  1.6236321554257689  0.0000000000000000   F   F   F
 11.2486566929999992  1.6236321554257689  0.0000000000000000   F   F   F
 16.8728866139999987  1.6236321554257689  0.0000000000000000   F   F   F
 -1.4061066929999988  4.0590803885644222  0.0000000000000000   F   F   F
  1.4061066930000008  4.0590803885644222  0.0000000000000000   F   F   F
  4.2181232280000005  4.0590803885644222  0.0000000000000000   F   F   F
  7.0303366140000003  4.0590803885644222  0.0000000000000000   F   F   F
  9.8425499999999992  4.0590803885644222  0.0000000000000000   F   F   F
 12.6547633859999991  4.0590803885644222  0.0000000000000000   F   F   F
 15.4667799209999988  4.0590803885644222  0.0000000000000000   F   F   F
  0.0000984255000013  6.4943581437363154  0.0000000000000000   F   F   F
  2.8121149605000011  6.4943581437363154  0.0000000000000000   F   F   F
  5.6243283465000005  6.4943581437363154  0.0000000000000000   F   F   F
  8.4365417325000003  6.4943581437363154  0.0000000000000000   F   F   F
 11.2487551185000001  6.4943581437363154  0.0000000000000000   F   F   F
 14.0607716534999998  6.4943581437363154  0.0000000000000000   F   F   F
 -4.2182216534999979  8.9298063768749678  0.0000000000000000   F   F   F
 -1.4060082674999981  8.9298063768749678  0.0000000000000000   F   F   F
  1.4060082675000016  8.9298063768749678  0.0000000000000000   F   F   F
  4.2182216535000014  8.9298063768749678  0.0000000000000000   F   F   F
  7.0304350395000013  8.9298063768749678  0.0000000000000000   F   F   F
  9.8426484255000020  8.9298063768749678  0.0000000000000000   F   F   F
 12.6546649605000017  8.9298063768749678  0.0000000000000000   F   F   F
 -2.8121149604999971 11.3652546100136220  0.0000000000000000   F   F   F
 -0.0000984254999975 11.3652546100136220  0.0000000000000000   F   F   F
  2.8121149605000024 11.3652546100136220  0.0000000000000000   F   F   F
  5.6243283465000022 11.3652546100136220  0.0000000000000000   F   F   F
  8.4365417325000021 11.3652546100136220  0.0000000000000000   F   F   F
 11.2485582675000018 11.3652546100136220  0.0000000000000000   F   F   F
 -7.0304350394999959 13.8007028431522745  0.0000000000000000   F   F   F
 -4.2182216534999952 13.8007028431522745  0.0000000000000000   F   F   F
 -1.4062051184999969 13.8007028431522745  0.0000000000000000   F   F   F
  1.4060082675000030 13.8007028431522745  0.0000000000000000   F   F   F
  4.2182216535000032 13.8007028431522745  0.0000000000000000   F   F   F
  7.0304350395000030 13.8007028431522745  0.0000000000000000   F   F   F
  9.8424515745000019 13.8007028431522745  0.0000000000000000   F   F   F
 -8.4364433069999958 16.2359805983241685  0.0000000000000000   F   F   F
 -5.6242299209999960 16.2359805983241685  0.0000000000000000   F   F   F
  0.0000000000000033 16.2359805983241685  0.0000000000000000   F   F   F
  2.8122133860000034 16.2359805983241685  0.0000000000000000   F   F   F
  5.6244267720000032 16.2359805983241685  0.0000000000000000   F   F   F
  8.4364433070000029 16.2359805983241685  0.0000000000000000   F   F   F
  0.0000000000000003  1.6236321554257689  0.0000000000000000   F   F   F
  5.6242299209999995  1.6236321554257689  0.0000000000000000   F   F   F
 14.0608700789999990  1.6236321554257689  0.0000000000000000   F   F   F
 -2.8121149604999984  6.4943581437363154  0.0000000000000000   F   F   F
 -5.6243283464999969 11.3652546100136220  0.0000000000000000   F   F   F
 -2.8122133859999963 16.2359805983241685  0.0000000000000000   F   F   F
  1.4061066930000001  0.8118160777128844  2.2960826699999997   F   F   F
  4.2183200789999997  0.8118160777128844  2.2960826699999997   F   F   F
  7.0303366139999994  0.8118160777128844  2.2960826699999997   F   F   F
  9.8425499999999992  0.8118160777128844  2.2960826699999997   F   F   F
 12.6547633859999991  0.8118160777128844  2.2960826699999997   F   F   F
 15.4669767719999989  0.8118160777128844  2.2960826699999997   F   F   F
 18.2789933070000004  0.8118160777128844  2.2960826699999997   F   F   F
  0.0000000000000006  3.2472643108515378  2.2960826699999997   F   F   F
  2.8122133860000003  3.2472643108515378  2.2960826699999997   F   F   F
  5.6242299210000004  3.2472643108515378  2.2960826699999997   F   F   F
  8.4364433069999993  3.2472643108515378  2.2960826699999997   F   F   F
 11.2486566929999992  3.2472643108515378  2.2960826699999997   F   F   F
 14.0608700789999990  3.2472643108515378  2.2960826699999997   F   F   F
 16.8728866139999987  3.2472643108515378  2.2960826699999997   F   F   F
 -1.4060082674999987  5.6825420660234309  2.2960826699999997   F   F   F
  1.4062051185000011  5.6825420660234309  2.2960826699999997   F   F   F
  4.2182216535000006  5.6825420660234309  2.2960826699999997   F   F   F
  7.0304350395000004  5.6825420660234309  2.2960826699999997   F   F   F
  9.8426484255000002  5.6825420660234309  2.2960826699999997   F   F   F
 12.6548618115000000  5.6825420660234309  2.2960826699999997   F   F   F
 15.4668783464999997  5.6825420660234309  2.2960826699999997   F   F   F
 -2.8121149604999980  8.1179902991620843  2.2960826699999997   F   F   F
  0.0000984255000017  8.1179902991620843  2.2960826699999997   F   F   F
  2.8121149605000015  8.1179902991620843  2.2960826699999997   F   F   F
  5.6243283465000014  8.1179902991620843  2.2960826699999997   F   F   F
  8.4365417325000003  8.1179902991620843  2.2960826699999997   F   F   F
 11.2487551185000001  8.1179902991620843  2.2960826699999997   F   F   F
 14.0607716534999998  8.1179902991620843  2.2960826699999997   F   F   F
 -4.2182216534999970 10.5534385323007367  2.2960826699999997   F   F   F
 -1.4060082674999976 10.5534385323007367  2.2960826699999997   F   F   F
  1.4060082675000021 10.5534385323007367  2.2960826699999997   F   F   F
  4.2182216535000023 10.5534385323007367  2.2960826699999997   F   F   F
  7.0304350395000021 10.5534385323007367  2.2960826699999997   F   F   F
  9.8426484255000020 10.5534385323007367  2.2960826699999997   F   F   F
 12.6546649605000017 10.5534385323007367  2.2960826699999997   F   F   F
 -5.6243283464999969 12.9888867654393891  2.2960826699999997   F   F   F
 -2.8121149604999967 12.9888867654393891  2.2960826699999997   F   F   F
 -0.0000984254999971 12.9888867654393891  2.2960826699999997   F   F   F
  2.8121149605000029 12.9888867654393891  2.2960826699999997   F   F   F
  5.6243283465000022 12.9888867654393891  2.2960826699999997   F   F   F
  8.4365417325000021 12.9888867654393891  2.2960826699999997   F   F   F
 11.2485582675000018 12.9888867654393891  2.2960826699999997   F   F   F
 -7.0303366139999959 15.4241645206112832  2.2960826699999997   F   F   F
 -4.2181232279999961 15.4241645206112832  2.2960826699999997   F   F   F
 -1.4061066929999968 15.4241645206112832  2.2960826699999997   F   F   F
  1.4061066930000030 15.4241645206112832  2.2960826699999997   F   F   F
  4.2183200790000033 15.4241645206112832  2.2960826699999997   F   F   F
  7.0305334650000031 15.4241645206112832  2.2960826699999997   F   F   F
  9.8425500000000028 15.4241645206112832  2.2960826699999997   F   F   F
  0.0197835255000000  0.0298336441830648  4.6149291720000010   F   F   F
 -7.0390964834999954 17.0346698725965027  4.6333153440000006   F   F   F
 -4.2330839039999963 16.9690358553937628  4.6592894599999992   F   F   F
 -1.3930161014999960 16.9657967740253142  4.6579761619999998   F   F   F
  1.4085673305000039 17.0394432556657947  4.6346286420000000   F   F   F
 14.0316377054999997  0.0298336441830648  4.6133240300000002   F   F   F
 16.8687527430000017  0.0337546374185534  4.7929540120000000   F   F   F
 18.2693476080000003  2.4511322060806071  4.6220793500000008   F   F   F
  1.3731341505000001  2.4390282704406210  4.6260192440000001   F   F   F
  4.1533592489999993  2.4102174940581187  4.6503882179999998   F   F   F
  7.0257106155000004  2.4673276129228423  4.5956674680000011   F   F   F
  9.9024911295000013  2.4172070906952934  4.6471779339999992   F   F   F
 12.6793697609999985  2.4429492636761099  4.6277703079999997   F   F   F
 15.4654019639999998  2.4514731620141283  4.6233926480000003   F   F   F
 16.8651109995000006  4.8775451069809606  4.6374011600000005   F   F   F
 -0.0490158989999993  4.8715783781443482  4.6392981459999998   F   F   F
  2.7362289000000000  4.8606677882716838  4.6849717320000002   F   F   F
  5.6078912880000011  4.9268132393747077  4.6651263399999996   F   F   F
  8.4339826694999989  4.9303932766766758  4.6652722620000011   F   F   F
 11.3102710559999995  4.8681688188091403  4.6821992139999997   F   F   F
 14.0957127060000005  4.8739650696789933  4.6413410540000015   F   F   F
 -4.1998160849999984  7.3155505096210200  4.6321479679999999   F   F   F
 -1.4323863014999985  7.3157209875877802  4.6324398120000003   F   F   F
  1.3231339965000011  7.3184486350559466  4.6245600240000009   F   F   F
  4.2033594030000003  7.3970389777324774  4.6571006299999995   F   F   F
  7.0243326585000005  7.4033466625026101  4.7237869840000002   F   F   F
  9.8459948925000020  7.4013009269014862  4.6572465520000002   F   F   F
 12.7293699150000013  7.3220286723579138  4.6245600240000009   F   F   F
 -5.5982455889999985  9.7530444783607990  4.6210578959999999   F   F   F
 -2.8128039389999975  9.7465663156239035  4.6328775779999996   F   F   F
 -0.0294292244999972  9.7528740003940371  4.6213497399999994   F   F   F
  2.7504021720000020  9.8106660311258018  4.6463024020000008   F   F   F
  5.6010015030000018  9.8495350075471677  4.6851176539999999   F   F   F
  8.4540614715000029  9.8507283533144889  4.6843880440000003   F   F   F
 11.3065308869999992  9.8130527226604478  4.6483453099999998   F   F   F
 -6.9929349239999974 12.1980394776380319  4.6238304139999995   F   F   F
 -4.2058200404999964 12.1712744368566526  4.6306887479999999   F   F   F
 -1.4188035824999972 12.1712744368566526  4.6303969039999995   F   F   F
  1.3672286205000019 12.1982099556047920  4.6261651659999998   F   F   F
  4.1575915455000034 12.2568543761703594  4.6391522240000009   F   F   F
  7.0282696785000001 12.2650373185748585  4.6400277559999994   F   F   F
  9.9009163215000004 12.2575362880374019  4.6388603800000014   F   F   F
 -8.3943171929999956 14.6379201379124542  4.6220793500000008   F   F   F
 -5.6111393294999967 14.5954711241891211  4.6337531099999998   F   F   F
 -2.8129023644999962 14.5852424461835000  4.6235385700000000   F   F   F
 -0.0139764209999960 14.5949596902888405  4.6356500960000000   F   F   F
  2.7651659970000018 14.6406477853806205  4.6217875060000013   F   F   F
  5.5691116410000028 14.6706519075304449  4.5733414020000005   F   F   F
  8.4884119710000050 14.6692880837963635  4.5758220760000006   F   F   F
  8.5953020640000020 11.9430044393645165  6.8138277899999995   T   T   T
 11.3934406035000002  6.5986906593936618  6.5952366340000008   T   T   T
  7.0273838490000013  9.2214941780019615  6.8929175140000014   T   T   T
  9.8086916280000001  4.0307810460822004  6.6629444420000015   T   T   T
  4.2404658165000013  4.0275419647137536  6.6663006480000000   T   T   T
  5.4942098355000004  6.5455015337644262  6.8506001339999996   T   T   T
  5.4487372545000019 11.9295366799904485  6.8132441019999996   T   T   T
  2.6502050130000012  6.5971563576928185  6.5968417759999998   T   T   T
 10.1719801485000012  9.2093902423619749  6.8603769080000001   T   T   T
  8.3661675000000013  1.4862269142169100  6.5282584359999998   T   T   T
  7.0274822744999996  3.9910596798270346  6.8542481840000002   T   T   T
  8.5474672710000021  6.5490815710663943  6.8489949919999997   T   T   T
  3.8826891240000014  9.1996729982566343  6.8554155600000000   T   T   T
  5.6935214729999997  1.4875907379509932  6.5348249259999998   T   T   T
  7.0170491715000027 14.6183151717350110  6.7315277819999997   T   T   T
  9.8550500384999999 10.8596169606023611  7.4636184560000007   T   T   T
 11.5095826935000005  8.1483353772454290  7.4609918600000000   T   T   T
  7.0237421055000011 11.0676000800500134  7.4694553360000002   T   T   T
  8.5903807890000028  8.3493289000559070  7.5616780400000003   T   T   T
  5.4650758875000003  8.3467717305545008  7.5610943519999996   T   T   T
  7.0221672975000011  5.7265253814476056  7.6798748600000000   T   T   T
 10.1900904405000006  5.5904839639728303  7.5918838940000004   T   T   T
  8.6266013729999997  2.9373353672811842  7.6355145719999991   T   T   T
  3.8513898150000010  5.5875858385379038  7.5943645680000005   T   T   T
  5.4305285370000007  2.9397220588158293  7.6379952459999991   T   T   T
  4.1920404705000012 10.8466606351285737  7.4662450519999997   T   T   T
  2.5433149200000007  8.1457782077440246  7.4649317539999993   T   T   T
  5.6641906740000021 13.6382373408296420  7.3201771300000003   T   T   T
  8.3776832835000032 13.6510231883366693  7.3213445060000000   T   T   T
  7.0170491715000018 16.3241177071392798  6.6836653659999996   T   T   T
